100
128
4
56
39
35
1
35
64
11
38
49
59
6
64
29
38
41
10
30
30
34
13
30
47
12
25
29
20
61
5
33
41
45
26
61
12
1
22
16
62
32
48
36
16
10
28
33
25
48
42
11
64
21
21
22
1
13
2
49
14
1
19
19
1
28
19
28
25
22
1
14
25
28
44
1
14
12
29
37
18
63
21
44
14
3
64
34
52
29
1
1
16
47
51
19
2
58
30
12
56
30